(set-logic HORN)
(declare-fun state (Int Int (Array Int Int) Int Int Bool Bool Bool Int Int) Bool)
(assert (forall ((|A_12| Int) (|B_11| Int) (|C_11| (Array Int Int)) (|D_11| Int) (|.y.5| Int) (|.loc.6| Bool) (|.loc.7| Bool) (|.loc.8| Bool) (|H_12| Int) (|H_13| Int) (|I_11| Int) (|.x.25| Int) (|.loc.10| Bool) (|.y.9| Int) (|.x.24| (Array Int Int)) (|.loc.11| Bool) (|.loc.12| Bool) (|.x.23| Int) (|.xtv.1| Int) (|.xpv.1| Int)) (=> (and (and (not .loc.6) (not .loc.7)) (not .loc.8)) (state |A_12| |B_11| |C_11| |D_11| |.y.5| |.loc.6| |.loc.7| |.loc.8| |H_12| |H_13|))))
(assert (forall ((|A_12| Int) (|B_11| Int) (|C_11| (Array Int Int)) (|D_11| Int) (|.y.5| Int) (|.loc.6| Bool) (|.loc.7| Bool) (|.loc.8| Bool) (|H_12| Int) (|H_13| Int) (|I_11| Int) (|.x.25| Int) (|.loc.10| Bool) (|.y.9| Int) (|.x.24| (Array Int Int)) (|.loc.11| Bool) (|.loc.12| Bool) (|.x.23| Int) (|.xtv.1| Int) (|.xpv.1| Int)) (=> (and (state |A_12| |B_11| |C_11| |D_11| |.y.5| |.loc.6| |.loc.7| |.loc.8| |H_12| |H_13|) (let ((.def_20 (not .loc.6))) (let ((.def_21 (not .loc.7))) (let ((.def_23 (not .loc.8))) (let ((.def_30 (<= D_11 B_11))) (let ((.def_51 (<= A_12 0))) (let ((.def_52 (not .def_51))) (let ((.def_58 (or .def_51 (not (<= H_12 0))))) (let ((.def_66 (not .loc.10))) (let ((.def_70 (= .y.9 0))) (let ((.def_72 (= D_11 I_11))) (let ((.def_76 (= C_11 .x.24))) (let ((.def_80 (not .def_30))) (let ((.def_82 (and .def_20 (and .loc.7 .def_80)))) (let ((.def_90 (= (+ B_11 (* (- 1) .y.9)) (- 1)))) (let ((.def_94 (= (+ A_12 (+ B_11 (* (- 1) H_12))) 0))) (let ((.def_99 (and .def_30 .def_76))) (let ((.def_105 (not .loc.11))) (let ((.def_111 (and .loc.6 .def_80))) (let ((.def_123 (and .loc.6 .def_99))) (let ((.def_155 (not .loc.12))) (let ((.def_196 (= A_12 .x.23))) (or (or (and (or (or (or (or (and (or (or (and .loc.8 (or (or (and (or (and (or (and (or (and .def_20 (and (= I_11 0) (and (= D_11 .x.25) .def_30))) (and (= .y.5 .x.25) (and (and (= (+ D_11 (* (- 1) I_11)) (- 1)) (and (= (+ A_12 (+ D_11 (* (- 1) H_12))) 0) (and (and (not (<= .y.5 D_11)) (and .loc.6 (= (select C_11 H_12) 47))) .def_52))) .def_58))) (and .loc.7 .loc.10)) (and (and (and .def_21 (and (and .loc.6 .def_30) .def_66)) .def_70) .def_72)) .def_76) (and (and (and (= .x.24 (store C_11 H_12 47)) (and .def_72 (and .def_66 (and .def_58 (and .def_52 .def_82))))) .def_90) .def_94)) .loc.11) (and (and .def_72 (and .def_70 (and .def_21 (and .loc.10 (and .def_20 .def_99))))) .def_105)) (and (= .x.24 (store C_11 H_12 46)) (and .def_105 (and .def_94 (and .def_90 (and .def_72 (and .def_21 (and .def_58 (and .def_52 (and .loc.10 .def_111))))))))))) (and .def_23 (and .def_105 (and .def_72 (and .def_70 (and .def_66 (and .loc.7 .def_123))))))) (and (= .x.24 (store C_11 H_12 45)) (and .def_105 (and .def_94 (and .def_90 (and .def_72 (and .def_21 (and .def_66 (and .def_58 (and .def_52 (and .def_20 (and .loc.8 .def_80)))))))))))) .loc.12) (and (and .def_23 (and .def_72 (and .def_70 (and .loc.11 (and .loc.10 (and .def_20 (and .loc.7 .def_99))))))) .def_155)) (and (= .x.24 (store C_11 H_12 44)) (and .def_155 (and .def_23 (and .def_94 (and .def_90 (and .def_72 (and .def_58 (and .def_52 (and .loc.11 (and .loc.10 (and .loc.7 .def_111)))))))))))) (and .def_155 (and .def_23 (and .def_72 (and .def_70 (and .def_21 (and .def_66 (and .loc.11 .def_123)))))))) (and (= .x.24 (store C_11 H_12 43)) (and .def_155 (and .def_23 (and .def_94 (and .def_90 (and .def_72 (and .def_66 (and .def_58 (and .def_52 (and .def_82 .loc.11))))))))))) .def_196) (and (not (<= .x.23 0)) (and (not (<= I_11 0)) (and .def_155 (and .def_23 (and .def_105 (and .def_70 (and .def_21 (and .def_20 .loc.10))))))))) (and (= .x.24 (store C_11 H_12 42)) (and .def_155 (and .def_23 (and .def_105 (and .def_94 (and .def_90 (and .def_72 (and .def_21 (and .def_58 (and .def_52 (and .loc.10 (and .loc.6 (and .def_80 .def_196)))))))))))))))))))))))))))))))))))) (state |.x.23| |.y.9| |.x.24| |I_11| |.x.25| |.loc.10| |.loc.11| |.loc.12| |.xtv.1| |.xpv.1|))))
(assert (forall ((|A_12| Int) (|B_11| Int) (|C_11| (Array Int Int)) (|D_11| Int) (|.y.5| Int) (|.loc.6| Bool) (|.loc.7| Bool) (|.loc.8| Bool) (|H_12| Int) (|H_13| Int) (|I_11| Int) (|.x.25| Int) (|.loc.10| Bool) (|.y.9| Int) (|.x.24| (Array Int Int)) (|.loc.11| Bool) (|.loc.12| Bool) (|.x.23| Int) (|.xtv.1| Int) (|.xpv.1| Int)) (=> (state |A_12| |B_11| |C_11| |D_11| |.y.5| |.loc.6| |.loc.7| |.loc.8| |H_12| |H_13|) (let ((.def_51 (<= A_12 0))) (not (and (and .loc.8 (and .loc.6 .loc.7)) (and (and (not (= (select C_11 H_13) 47)) (and (and (not (<= .y.5 D_11)) (not .def_51)) (= (+ A_12 (+ D_11 (* (- 1) H_13))) 0))) (or .def_51 (not (<= H_13 0))))))))))
(check-sat)
